\ENCODING=ISO-8859-1
\Problem name: IloCplex

Minimize
 obj: 1000000000000 x1 + 1000000000000 x2 + 1000000000000 x3 + 1000000000000 x4
      + 1000000000000 x5 + 1000000000000 x6 + 1000000000000 x7
      + 1000000000000 x8 + 1000000000000 x9 + 1000000000000 x10
      + 1000000000000 x11 + 1000000000000 x12 + 1000000000000 x13
      + 1000000000000 x14 + 1000000000000 x15 + 1000000000000 x16
      + 1000000000000 x17 + 1000000000000 x18 + 1000000000000 x19
      + 1000000000000 x20 + 1000000000000 x21 + 1000000000000 x22
      + 1000000000000 x23 + 1000000000000 x24 + 1000000000000 x25
      + 1000000000000 x26 + 1000000000000 x27 + 1000000000000 x28
      + 1000000000000 x29 + 1000000000000 x30 + 1000000000000 x31
      + 1000000000000 x32 + 1000000000000 x33 + 1000000000000 x34
      + 1000000000000 x35 + 1000000000000 x36 + 1000000000000 x37
      + 1000000000000 x38 + 1000000000000 x39 + 1000000000000 x40
      + 1000000000000 x41 + 1000000000000 x42 + 1000000000000 x43
      + 1000000000000 x44 + 1000000000000 x45 + 1000000000000 x46
      + 1000000000000 x47 + 1000000000000 x48 + 1000000000000 x49
      + 1000000000000 x50 + x51 + x52 + x53 + x54 + x55 + x56 + x57 + x58 + x59
      + x60 + x61 + x62 + x63 + x64 + x65 + x66 + x67 + x68 + x69 + x70 + x71
      + x72 + x73 + x74 + x75 + x76 + x77 + x78 + x79 + x80 + x81 + x82 + x83
      + x84 + x85 + x86 + x87 + x88 + x89 + x90 + x91 + x92 + x93 + x94 + x95
      + x96 + x97 + x98 + x99 + x100 + x101 + x102 + x103 + x104 + x105 + x106
      + x107 + x108 + x109 + x110 + x111 + x112 + x113 + x114 + x115 + x116
      + x117 + x118 + x119 + x120 + x121 + x122 + x123 + x124 + x125 + x126
      + x127 + x128 + x129 + x130 + x131 + x132 + x133 + x134 + x135 + x136
      + x137 + x138 + x139 + x140 + x141 + x142 + x143 + x144 + x145 + x146
      + x147 + x148 + x149 + x150 + x151 + x152 + x153 + x154 + x155 + x156
      + x157 + x158 + x159 + x160 + x161 + x162 + x163 + x164 + x165 + x166
      + x167 + x168 + x169 + x170 + x171 + x172 + x173 + x174 + x175 + x176
      + x177 + x178 + x179 + x180 + x181 + x182 + x183 + x184 + x185 + x186
      + x187 + x188 + x189 + x190 + x191 + x192 + x193 + x194 + x195 + x196
      + x197 + x198 + x199 + x200 + x201 + x202 + x203 + x204 + x205 + x206
      + x207 + x208 + x209 + x210 + x211 + x212 + x213 + x214 + x215 + x216
      + x217 + x218 + x219 + x220 + x221 + x222 + x223 + x224 + x225 + x226
      + x227 + x228 + x229 + x230 + x231 + x232 + x233 + x234 + x235 + x236
      + x237
Subject To
 c1:  x1 + x150  = 1
 c2:  x2 + x145 + x205 + x225  = 1
 c3:  x3 + x144 + x190  = 1
 c4:  x4 + x147  = 1
 c5:  x5 + x142 + x148 + x189  = 1
 c6:  x6 + x140 + x166 + x188 + x210  = 1
 c7:  x7 + x146 + x161 + x165 + x170 + x187 + x236  = 1
 c8:  x8 + x155 + x156 + x218 + x219  = 1
 c9:  x9 + x152 + x154 + x164 + x201 + x213  = 1
 c10: x10 + x134 + x138 + x178  = 1
 c11: x11 + x133 + x139 + x159  = 1
 c12: x12 + x109 + x151 + x153 + x163 + x177  = 1
 c13: x13 + x137 + x149 + x183  = 1
 c14: x14 + x104 + x136 + x141 + x182 + x227 + x232  = 1
 c15: x15 + x124 + x131 + x143 + x168 + x171  = 1
 c16: x16 + x128 + x132 + x162 + x206  = 1
 c17: x17 + x115 + x126 + x129 + x160 + x175 + x176 + x207 + x222  = 1
 c18: x18 + x113 + x114 + x135 + x184 + x235  = 1
 c19: x19 + x120 + x122 + x130 + x172 + x195  = 1
 c20: x20 + x106 + x112 + x119 + x185 + x198  = 1
 c21: x21 + x101 + x103 + x118 + x169 + x180 + x197 + x208 + x220  = 1
 c22: x22 + x99 + x100 + x121 + x125 + x174 + x192 + x193 + x203 + x212 + x226
      + x231  = 1
 c23: x23 + x96 + x98 + x173 + x179 + x196 + x200 + x202  = 1
 c24: x24 + x92 + x95 + x98 + x127 + x158 + x167 + x193 + x204 + x211  = 1
 c25: x25 + x88 + x90 + x95 + x96 + x111 + x157 + x169 + x192  = 1
 c26: x26 + x86 + x90 + x91 + x97 + x102 + x105 + x107 + x116 + x121 + x180
      + x185 + x186 + x191  = 1
 c27: x27 + x83 + x85 + x86 + x92 + x119 + x191 + x214 + x215 + x216 + x217
      + x220 + x229 + x230 + x231 + x234  = 1
 c28: x28 + x78 + x79 + x93 + x94 + x103 + x123 + x130 + x158 + x181 + x194
       = 1
 c29: x29 + x81 + x82 + x83 + x85 + x88 + x93 + x110 + x127 + x135 + x195
      + x196 + x197 + x198 + x199  = 1
 c30: x30 + x80 + x81 + x82 + x89 + x106 + x116 + x118 + x172 + x184 + x199
      + x215 + x221 + x228 + x230 + x233 + x237  = 1
 c31: x31 + x65 + x77 + x78 + x84 + x117 + x131 + x175  = 1
 c32: x32 + x68 + x72 + x75 + x76 + x77 + x102 + x128 + x157 + x167 + x176
      + x223 + x224  = 1
 c33: x33 + x56 + x62 + x65 + x68 + x94 + x100 + x110 + x111 + x114 + x117
      + x160 + x162 + x194 + x207 + x209 + x217 + x222 + x223 + x224 + x226
      + x228 + x229 + x233 + x234 + x235 + x237  = 1
 c34: x34 + x70 + x73 + x75 + x79 + x87 + x91 + x115 + x141 + x209 + x221
      + x224  = 1
 c35: x35 + x69 + x70 + x71 + x80 + x97 + x104 + x137 + x168 + x173 + x181
      + x186  = 1
 c36: x36 + x67 + x70 + x76 + x84 + x89 + x101 + x108 + x117 + x123 + x129
      + x171 + x174 + x181 + x182 + x183 + x186 + x194 + x209 + x211 + x212
      + x216 + x221  = 1
 c37: x37 + x64 + x65 + x66 + x74 + x80 + x107 + x108 + x109 + x204 + x214
      + x216  = 1
 c38: x38 + x60 + x61 + x62 + x63 + x64 + x67 + x72 + x73 + x87 + x93 + x102
      + x125 + x133 + x179  = 1
 c39: x39 + x56 + x59 + x62 + x66 + x67 + x71 + x87 + x91 + x99 + x120 + x126
      + x143 + x149 + x157 + x159 + x177 + x179 + x199 + x200 + x202 + x203
      + x204 + x208 + x211 + x214 + x217 + x233 + x234  = 1
 c40: x40 + x57 + x58 + x59 + x60 + x61 + x63 + x66 + x71 + x73 + x74 + x76
      + x89 + x97 + x107 + x110 + x111 + x113 + x122 + x151 + x152 + x167
      + x178 + x200 + x203 + x232  = 1
 c41: x41 + x52 + x53 + x56 + x57 + x64 + x66 + x68 + x69 + x72 + x84 + x99
      + x105 + x116 + x124 + x132 + x138 + x163 + x164 + x173 + x174  = 1
 c42: x42 + x51 + x54 + x55 + x56 + x58 + x63 + x67 + x69 + x73 + x77 + x83
      + x94 + x105 + x108 + x112 + x123 + x125 + x136 + x155 + x206 + x213  = 1
 c43: x43 + x51 + x52 + x53 + x54 + x55 + x57 + x58 + x60 + x61 + x72 + x74
      + x75 + x78 + x85 + x105 + x108 + x112 + x134 + x156 + x158 + x191 + x201
      + x202 + x206 + x208 + x212 + x215  = 1
 c44: x44 + x51 + x52 + x53 + x54 + x55 + x57 + x58 + x59 + x61 + x62 + x63
      + x64 + x74 + x75 + x82 + x84 + x88 + x113 + x153 + x154 + x161 + x166
      + x237  = 1
 c45: x45 + x51 + x52 + x53 + x54 + x55 + x57 + x59 + x60 + x69 + x71 + x76
      + x79 + x87 + x90 + x100 + x101 + x120 + x132 + x165 + x170 + x210  = 1
 c46: x46 + x51 + x52 + x53 + x54 + x55 + x58 + x59 + x60 + x63 + x68 + x74
      + x77 + x79 + x89 + x92 + x124 + x136 + x142  = 1
 c47: x47 + x51 + x52 + x53 + x54 + x58 + x59 + x60 + x61 + x64 + x69 + x70
      + x82 + x86 + x87 + x94 + x95 + x96 + x107 + x110 + x121 + x149 + x187
      + x188 + x189 + x190  = 1
 c48: x48 + x51 + x52 + x53 + x56 + x61 + x63 + x65 + x69 + x72 + x79 + x81
      + x86 + x97 + x105 + x106 + x114 + x126 + x127 + x134 + x163 + x164
      + x171 + x187 + x200 + x201 + x205 + x207 + x218 + x225  = 1
 c49: x49 + x51 + x52 + x57 + x58 + x59 + x60 + x64 + x67 + x71 + x74 + x81
      + x85 + x86 + x94 + x95 + x98 + x103 + x116 + x122 + x153 + x160 + x168
      + x170 + x180 + x236  = 1
 c50: x50 + x51 + x57 + x58 + x59 + x60 + x62 + x66 + x69 + x70 + x81 + x83
      + x90 + x97 + x103 + x108 + x111 + x115 + x128 + x163 + x165 + x202
      + x203 + x204 + x205 + x215 + x217  = 1
Bounds
      x51 = 0
      x52 = 0
      x53 = 0
      x54 = 0
      x55 = 0
      x56 = 0
      x57 = 0
      x58 = 0
      x59 = 0
      x60 = 0
      x61 = 0
      x62 = 0
      x63 = 0
      x64 = 0
      x65 = 0
      x66 = 0
      x67 = 0
      x68 = 0
      x69 = 0
      x70 = 0
      x71 = 0
      x72 = 0
      x73 = 0
      x74 = 0
      x75 = 0
      x76 = 0
      x77 = 0
      x78 = 0
      x79 = 0
      x80 = 0
      x81 = 0
      x82 = 0
      x83 = 0
      x84 = 0
      x85 = 0
      x86 = 0
      x87 = 0
      x88 = 0
      x89 = 0
      x90 = 0
      x91 = 0
      x92 = 0
      x93 = 0
      x94 = 0
      x95 = 0
      x96 = 0
      x97 = 0
      x98 = 0
      x99 = 0
      x100 = 0
      x101 = 0
      x102 = 0
      x103 = 0
      x104 = 0
      x105 = 0
      x106 = 0
      x107 = 0
      x108 = 0
      x110 = 0
      x111 = 0
      x112 = 0
      x114 = 0
      x115 = 0
      x116 = 0
      x117 = 0
      x118 = 0
      x119 = 0
      x120 = 0
      x121 = 0
      x122 = 0
      x123 = 0
      x124 = 0
      x125 = 0
      x126 = 0
      x127 = 0
      x128 = 0
      x129 = 0
      x132 = 0
      x134 = 0
      x135 = 0
      x136 = 0
      x139 = 0
      x143 = 0
      x145 = 0
      x146 = 0
      x149 = 0
      x153 = 0
      x155 = 0
      x157 = 0
      x158 = 0
      x159 = 0
      x160 = 0
      x161 = 0
      x162 = 0
      x163 = 0
      x164 = 0
      x165 = 0
      x167 = 0
      x168 = 0
      x171 = 0
      x172 = 0
      x173 = 0
      x174 = 0
      x175 = 0
      x178 = 0
      x179 = 0
      x180 = 0
      x181 = 0
      x182 = 0
      x183 = 0
      x186 = 0
      x187 = 0
      x191 = 0
      x192 = 0
      x193 = 0
      x194 = 0
      x195 = 0
      x197 = 0
      x198 = 0
      x199 = 0
      x200 = 0
      x201 = 0
      x202 = 0
      x203 = 0
      x204 = 0
      x207 = 0
      x208 = 0
      x209 = 0
      x212 = 0
      x213 = 0
      x214 = 0
      x215 = 0
      x216 = 0
      x217 = 0
      x218 = 0
      x220 = 0
      x221 = 0
      x222 = 0
      x223 = 0
      x224 = 0
      x225 = 0
      x226 = 0
      x229 = 0
      x230 = 0
      x234 = 0
End
